p cnf 50 25
44 1 -50 0
-8 -35 9 0
10 37 -43 0
33 37 11 0
37 13 12 0
-17 -20 1 0
34 43 13 0
41 -3 19 0
-37 -2 -46 0
-19 -11 -34 0
-39 -38 -4 0
2 -13 -1 0
6 35 -36 0
-39 -14 -11 0
50 -7 -23 0
9 26 -20 0
-35 48 18 0
19 -25 47 0
-50 39 -40 0
-23 33 -2 0
32 3 -45 0
34 -5 -7 0
-25 -2 -36 0
47 -32 -40 0
-46 9 21 0
